min

obj:

+2 x6
+2 x7
+2 x8
+100000 x9
+100000 x10
+100000 x11
+2 x12
+2 x13
+2 x14
+100000 x15
+100000 x16
+100000 x17
+2 x18
+2 x19
+2 x20
+100000 x21
+100000 x22
+100000 x23


s.t.

c0:
+1 x0
>= -0

c1:
+1 x1
>= -0

c2:
+1 x2
>= -0
c3:
+1 x0
<= +10000000

c4:
+1 x1
<= +10000000

c5:
+1 x2
<= +10000000
c6:
+1 x3
>= -0

c7:
+1 x4
>= -0

c8:
+1 x5
>= -0
c12:
+1 x6
>= +5176525.46978

c13:
+1 x7
>= +2782867.64595

c14:
+1 x8
>= +1347059.17519

c15:
+1 x12
>= +5524841.50845

c16:
+1 x13
>= +2743332.26346

c17:
+1 x14
>= +1336518.82058

c18:
+1 x18
>= +5699792.99184

c19:
+1 x19
>= +2729185.2083

c20:
+1 x20
>= +1324432.27523
c21:
+1 x6
<= +5176525.46978

c22:
+1 x7
<= +2782867.64595

c23:
+1 x8
<= +1347059.17519

c24:
+1 x12
<= +5524841.50845

c25:
+1 x13
<= +2743332.26346

c26:
+1 x14
<= +1336518.82058

c27:
+1 x18
<= +5699792.99184

c28:
+1 x19
<= +2729185.2083

c29:
+1 x20
<= +1324432.27523
c30:
+1 x9
>= -0

c31:
+1 x10
>= -0

c32:
+1 x11
>= -0

c33:
+1 x15
>= -0

c34:
+1 x16
>= -0

c35:
+1 x17
>= -0

c36:
+1 x21
>= -0

c37:
+1 x22
>= -0

c38:
+1 x23
>= -0
c39:
-1 x0
+1 x9
<= -0

c40:
-1 x1
+1 x10
<= -0

c41:
-1 x2
+1 x11
<= -0

c42:
-1 x0
+1 x15
<= -0

c43:
-1 x1
+1 x16
<= -0

c44:
-1 x2
+1 x17
<= -0

c45:
-1 x0
+1 x21
<= -0

c46:
-1 x1
+1 x22
<= -0

c47:
-1 x2
+1 x23
<= -0
c48:
+1 x3
+1 x24
>= -0

c49:
+1 x4
+1 x25
>= -0

c50:
+1 x5
+1 x26
>= -0

c51:
+1 x3
+1 x27
>= -0

c52:
+1 x4
+1 x28
>= -0

c53:
+1 x5
+1 x29
>= -0

c54:
+1 x3
+1 x30
>= -0

c55:
+1 x4
+1 x31
>= -0

c56:
+1 x5
+1 x32
>= -0
c57:
-1 x3
+1 x24
<= -0

c58:
-1 x4
+1 x25
<= -0

c59:
-1 x5
+1 x26
<= -0

c60:
-1 x3
+1 x27
<= -0

c61:
-1 x4
+1 x28
<= -0

c62:
-1 x5
+1 x29
<= -0

c63:
-1 x3
+1 x30
<= -0

c64:
-1 x4
+1 x31
<= -0

c65:
-1 x5
+1 x32
<= -0
c66:
+1 x6
-1 x9
-1 x24
-1 x25
= +422910.415391

c67:
+1 x12
-1 x15
-1 x27
-1 x28
= +426248.852802

c68:
+1 x18
-1 x21
-1 x30
-1 x31
= +426420.694353

c69:
+1 x7
-1 x10
+0.9 x24
-1 x26
= +505145.539411

c70:
+1 x13
-1 x16
+0.9 x27
-1 x29
= +479409.311194

c71:
+1 x19
-1 x22
+0.9 x30
-1 x32
= +454143.882377

c72:
+1 x8
-1 x11
+0.9 x25
+0.9 x26
= -0

c73:
+1 x14
-1 x17
+0.9 x28
+0.9 x29
= -0

c74:
+1 x20
-1 x23
+0.9 x31
+0.9 x32
= -0


bounds

-inf <= x0 <= +inf
-inf <= x1 <= +inf
-inf <= x2 <= +inf
-inf <= x3 <= +inf
-inf <= x4 <= +inf
-inf <= x5 <= +inf
-inf <= x6 <= +inf
-inf <= x7 <= +inf
-inf <= x8 <= +inf
-inf <= x9 <= +inf
-inf <= x10 <= +inf
-inf <= x11 <= +inf
-inf <= x12 <= +inf
-inf <= x13 <= +inf
-inf <= x14 <= +inf
-inf <= x15 <= +inf
-inf <= x16 <= +inf
-inf <= x17 <= +inf
-inf <= x18 <= +inf
-inf <= x19 <= +inf
-inf <= x20 <= +inf
-inf <= x21 <= +inf
-inf <= x22 <= +inf
-inf <= x23 <= +inf
-inf <= x24 <= +inf
-inf <= x25 <= +inf
-inf <= x26 <= +inf
-inf <= x27 <= +inf
-inf <= x28 <= +inf
-inf <= x29 <= +inf
-inf <= x30 <= +inf
-inf <= x31 <= +inf
-inf <= x32 <= +inf
end
